time,e_zz,fp_zz,pk2,stress_zz,tau_0,tau_1,tau_2,tau_3,tau_4
0,0,0,0,0,0,0,0,0,0
0.05,0.0050125188921215,1,599.51419968085,604.41563165779,-138.24463348118,13.113004154139,107.6357902668,119.14687295915,-197.43092557238
0.1,0.010050075294519,1,1202.0322947715,1221.7690650536,-277.21549903026,26.324588922476,215.82754227191,238.93624538576,-395.88841923428
0.15,0.015112668789431,1,1807.5543444023,1852.2597511221,-416.91278893577,39.635040310953,324.57546166756,359.36857399873,-595.37282084401
0.2,0.020200298950151,1,2416.0804062358,2496.0909848956,-557.33669220988,53.044641432759,433.87975300841,480.44431187998,-795.88446721964
0.25,0.025312965341198,1.0000000000001,3027.6105364724,3153.4700010371,-698.4873946011,66.553672464041,543.74061975753,602.16390844163,-997.4236921527
0.3,0.030450667518488,1.0000000000041,3642.1447898344,3824.6080721851,-840.36507859791,80.162410592502,654.15826429101,724.52780938546,-1199.9908264154
0.35,0.035613405029497,1.0000000000968,4259.683218667,4509.7206088212,-982.96992305523,93.87112966002,765.13288776794,847.53645625913,-1403.5861974096
0.4,0.040801177413669,1.0000000015047,4880.2258156741,5209.0271918839,-1126.3020708104,107.68005770361,876.66468110043,971.19024015411,-1608.2101012488
